jobs  (incl. supersource/sink ):	102
RESOURCES
- renewable                 : 2 R
- nonrenewable              : 2 N
- doubly constrained        : 0 D
************************************************************************
PRECEDENCE RELATIONS:
jobnr.    #modes  #successors   successors
1	1	8		2 3 4 5 6 9 11 12 
2	3	7		25 22 21 19 17 16 8 
3	3	4		23 13 8 7 
4	3	5		23 22 21 19 8 
5	3	6		28 23 22 20 18 10 
6	3	6		26 25 24 23 19 14 
7	3	9		43 33 31 27 26 24 22 21 20 
8	3	7		38 33 28 26 24 20 14 
9	3	8		40 32 31 27 26 25 22 20 
10	3	5		38 33 27 24 14 
11	3	4		31 27 20 15 
12	3	8		43 41 40 36 34 31 29 22 
13	3	9		43 41 38 37 36 34 32 30 29 
14	3	9		44 43 41 40 37 34 31 30 29 
15	3	7		44 43 37 34 33 32 26 
16	3	7		43 41 37 32 30 29 27 
17	3	5		43 41 32 29 20 
18	3	9		51 44 43 42 40 37 35 33 31 
19	3	2		33 20 
20	3	5		56 51 37 36 30 
21	3	5		41 38 35 34 29 
22	3	4		47 38 37 30 
23	3	6		56 46 42 39 38 34 
24	3	6		56 51 46 44 40 32 
25	3	6		56 51 46 43 35 34 
26	3	3		41 35 29 
27	3	6		56 51 46 44 39 34 
28	3	5		56 49 47 44 35 
29	3	6		56 52 51 49 46 39 
30	3	3		46 42 35 
31	3	5		52 49 47 46 39 
32	3	2		42 39 
33	3	6		56 52 50 49 48 47 
34	3	5		52 50 49 48 47 
35	3	2		52 39 
36	3	5		55 53 50 47 44 
37	3	1		39 
38	3	4		53 51 50 44 
39	3	2		48 45 
40	3	7		61 59 55 54 53 52 50 
41	3	6		61 57 55 53 50 47 
42	3	5		54 53 52 50 49 
43	3	6		61 59 57 55 54 50 
44	3	6		61 60 59 58 54 52 
45	3	5		66 61 59 55 50 
46	3	5		74 61 59 54 50 
47	3	10		74 70 66 65 63 62 60 59 58 54 
48	3	8		66 65 63 62 57 55 54 53 
49	3	8		71 70 65 62 61 60 58 55 
50	3	8		76 71 70 65 63 62 60 58 
51	3	9		76 74 70 69 67 66 63 60 59 
52	3	7		71 68 66 65 63 62 57 
53	3	8		78 75 74 72 70 68 67 64 
54	3	7		79 78 76 75 72 71 64 
55	3	7		78 75 74 72 69 68 64 
56	3	4		86 72 68 62 
57	3	7		80 78 75 74 73 72 69 
58	3	6		78 77 75 73 68 67 
59	3	7		86 80 78 75 73 72 68 
60	3	8		89 86 83 80 79 78 73 72 
61	3	5		86 82 76 72 69 
62	3	6		82 80 78 77 75 69 
63	3	3		78 75 64 
64	3	6		89 83 81 80 77 73 
65	3	6		83 82 80 79 78 77 
66	3	6		89 88 83 82 79 78 
67	3	10		101 92 89 88 86 85 83 82 81 80 
68	3	7		92 89 88 87 85 81 79 
69	3	7		92 89 88 85 83 81 79 
70	3	5		87 83 82 79 77 
71	3	8		101 100 92 88 86 84 81 80 
72	3	3		101 88 77 
73	3	8		101 99 98 92 91 87 85 82 
74	3	6		101 91 89 88 85 81 
75	3	5		101 92 88 85 81 
76	3	5		101 98 85 84 80 
77	3	7		98 95 94 92 91 85 84 
78	3	5		101 92 87 85 81 
79	3	7		101 100 95 94 91 90 84 
80	3	7		99 97 96 95 94 91 90 
81	3	5		98 97 95 94 90 
82	3	5		100 97 95 94 90 
83	3	4		100 99 95 91 
84	3	4		99 97 96 93 
85	3	3		100 96 90 
86	3	2		96 87 
87	3	2		94 93 
88	3	2		99 98 
89	3	1		90 
90	3	1		93 
91	3	1		93 
92	3	1		93 
93	3	1		102 
94	3	1		102 
95	3	1		102 
96	3	1		102 
97	3	1		102 
98	3	1		102 
99	3	1		102 
100	3	1		102 
101	3	1		102 
102	1	0		
************************************************************************
REQUESTS/DURATIONS
jobnr.	mode	dur	R1	R2	N1	N2	
------------------------------------------------------------------------
1	1	0	0	0	0	0	
2	1	2	5	3	7	6	
	2	4	2	3	6	3	
	3	8	2	2	3	2	
3	1	6	5	4	5	5	
	2	8	3	3	3	3	
	3	9	2	3	3	2	
4	1	2	2	4	3	2	
	2	3	2	3	3	1	
	3	6	1	3	3	1	
5	1	3	4	1	7	5	
	2	4	4	1	5	3	
	3	5	2	1	4	3	
6	1	5	4	4	6	5	
	2	7	4	3	5	4	
	3	10	4	3	5	3	
7	1	2	5	3	9	3	
	2	6	2	3	9	2	
	3	8	2	2	8	2	
8	1	6	5	2	8	4	
	2	9	3	2	5	2	
	3	10	3	2	2	2	
9	1	1	3	1	6	7	
	2	3	2	1	5	5	
	3	8	2	1	5	3	
10	1	4	3	5	5	3	
	2	7	3	3	4	2	
	3	10	2	3	3	1	
11	1	2	2	4	4	5	
	2	6	1	4	3	4	
	3	8	1	4	3	3	
12	1	1	3	2	8	5	
	2	8	3	1	6	3	
	3	9	2	1	3	2	
13	1	4	4	4	9	4	
	2	9	4	3	5	3	
	3	10	4	3	3	3	
14	1	1	3	4	7	10	
	2	9	2	3	5	9	
	3	10	2	1	3	8	
15	1	1	3	4	9	6	
	2	6	3	3	6	6	
	3	8	3	3	6	4	
16	1	1	4	4	3	9	
	2	2	4	3	2	8	
	3	7	4	3	2	7	
17	1	2	5	5	6	5	
	2	3	4	5	4	2	
	3	5	2	5	4	2	
18	1	3	5	4	6	10	
	2	4	5	3	4	6	
	3	9	5	3	3	4	
19	1	5	3	4	8	5	
	2	6	2	3	6	5	
	3	7	1	2	5	4	
20	1	1	4	4	4	5	
	2	4	4	2	3	5	
	3	5	4	2	3	4	
21	1	3	3	2	6	9	
	2	4	2	2	3	8	
	3	5	1	2	2	6	
22	1	4	4	4	9	4	
	2	8	2	3	5	3	
	3	10	1	3	5	2	
23	1	6	5	1	4	5	
	2	8	3	1	2	4	
	3	10	2	1	2	2	
24	1	3	4	2	4	5	
	2	4	2	1	4	3	
	3	6	1	1	4	3	
25	1	2	5	2	7	6	
	2	4	3	1	6	4	
	3	7	3	1	3	2	
26	1	4	4	4	2	5	
	2	6	4	4	2	4	
	3	7	4	4	1	4	
27	1	1	4	4	9	6	
	2	2	3	3	7	4	
	3	9	3	2	6	3	
28	1	6	1	5	3	9	
	2	7	1	4	3	5	
	3	8	1	4	3	3	
29	1	2	1	2	8	10	
	2	5	1	2	4	10	
	3	10	1	2	3	10	
30	1	3	4	2	3	9	
	2	9	4	1	3	6	
	3	10	4	1	3	3	
31	1	3	4	2	9	6	
	2	5	2	2	6	5	
	3	7	2	2	5	2	
32	1	6	5	3	8	7	
	2	7	3	3	7	5	
	3	10	3	3	6	1	
33	1	5	4	3	8	8	
	2	6	4	3	8	5	
	3	9	2	2	5	2	
34	1	1	3	4	5	10	
	2	2	3	4	5	9	
	3	10	3	4	5	8	
35	1	6	4	2	7	7	
	2	8	3	2	5	7	
	3	9	2	2	3	5	
36	1	1	3	4	6	5	
	2	4	3	4	6	4	
	3	9	3	4	6	3	
37	1	3	5	3	8	8	
	2	6	4	3	6	8	
	3	9	4	3	1	8	
38	1	5	5	1	6	8	
	2	8	3	1	6	7	
	3	10	3	1	5	3	
39	1	3	5	5	3	6	
	2	5	5	4	3	3	
	3	9	5	3	2	3	
40	1	3	2	1	4	7	
	2	5	1	1	2	6	
	3	6	1	1	2	5	
41	1	5	2	3	8	3	
	2	6	2	3	6	3	
	3	10	2	2	4	3	
42	1	5	2	4	5	8	
	2	8	1	3	2	7	
	3	9	1	2	2	6	
43	1	1	5	4	10	3	
	2	4	4	3	8	2	
	3	8	4	3	8	1	
44	1	3	3	3	7	6	
	2	5	2	3	7	5	
	3	9	2	1	6	4	
45	1	1	4	4	10	9	
	2	2	4	3	8	8	
	3	9	3	3	5	8	
46	1	1	3	5	3	5	
	2	2	2	4	2	5	
	3	10	1	4	1	5	
47	1	2	2	2	9	7	
	2	7	2	1	7	7	
	3	8	2	1	7	6	
48	1	2	5	4	5	9	
	2	4	3	3	4	5	
	3	9	2	2	1	2	
49	1	6	2	1	7	10	
	2	9	1	1	6	7	
	3	10	1	1	2	6	
50	1	5	3	2	4	9	
	2	6	2	1	4	9	
	3	9	1	1	4	8	
51	1	5	2	5	4	7	
	2	6	2	4	4	6	
	3	9	2	4	4	5	
52	1	1	4	5	4	8	
	2	2	3	3	3	6	
	3	6	3	1	3	5	
53	1	4	4	4	3	3	
	2	5	3	3	3	2	
	3	6	3	3	3	1	
54	1	6	3	1	5	7	
	2	8	2	1	4	7	
	3	9	1	1	2	7	
55	1	2	4	3	8	5	
	2	6	2	3	6	5	
	3	9	2	3	5	4	
56	1	8	4	5	3	5	
	2	9	2	3	1	3	
	3	10	1	3	1	2	
57	1	3	3	4	6	10	
	2	5	3	4	3	6	
	3	8	3	4	1	4	
58	1	4	1	4	9	7	
	2	5	1	4	8	5	
	3	9	1	4	8	4	
59	1	1	4	4	3	4	
	2	6	3	2	3	4	
	3	8	2	2	2	4	
60	1	1	3	1	8	5	
	2	6	2	1	7	4	
	3	9	2	1	5	2	
61	1	2	3	3	3	4	
	2	4	3	3	3	2	
	3	8	3	3	2	2	
62	1	5	4	2	7	4	
	2	6	4	2	6	3	
	3	7	4	2	6	2	
63	1	5	1	4	4	7	
	2	8	1	4	3	5	
	3	9	1	4	3	4	
64	1	2	5	2	5	9	
	2	3	5	2	5	3	
	3	6	5	2	5	2	
65	1	2	5	4	7	9	
	2	8	4	2	5	7	
	3	9	4	2	2	3	
66	1	1	5	2	8	8	
	2	2	5	1	4	4	
	3	7	5	1	3	4	
67	1	1	1	4	9	7	
	2	4	1	3	9	6	
	3	6	1	3	9	5	
68	1	4	3	1	9	6	
	2	7	2	1	6	3	
	3	8	2	1	6	2	
69	1	2	3	5	5	8	
	2	3	2	3	4	7	
	3	8	2	3	3	5	
70	1	2	5	4	4	8	
	2	4	3	4	3	8	
	3	9	2	3	3	4	
71	1	3	4	3	7	5	
	2	6	4	2	7	4	
	3	9	4	2	7	3	
72	1	3	5	5	8	6	
	2	9	4	4	6	3	
	3	10	3	3	5	2	
73	1	4	3	3	6	7	
	2	5	3	3	3	7	
	3	8	2	3	2	5	
74	1	7	2	3	7	7	
	2	8	1	2	5	5	
	3	10	1	1	5	2	
75	1	2	2	3	8	7	
	2	6	1	1	6	5	
	3	7	1	1	4	4	
76	1	1	4	1	4	3	
	2	5	3	1	4	2	
	3	10	3	1	4	1	
77	1	5	2	3	5	2	
	2	8	2	3	4	2	
	3	9	2	3	4	1	
78	1	6	4	3	2	10	
	2	7	2	3	1	6	
	3	8	2	1	1	6	
79	1	3	3	3	6	4	
	2	6	2	2	5	3	
	3	9	2	1	3	2	
80	1	5	5	1	6	7	
	2	6	3	1	6	7	
	3	9	3	1	6	6	
81	1	1	4	4	4	3	
	2	3	3	3	3	2	
	3	8	2	2	1	2	
82	1	2	2	5	7	3	
	2	4	1	5	6	2	
	3	10	1	5	3	1	
83	1	7	3	4	10	4	
	2	8	3	3	7	3	
	3	9	2	3	6	3	
84	1	2	4	3	6	4	
	2	4	2	3	5	3	
	3	6	2	3	4	3	
85	1	2	3	5	7	9	
	2	3	2	4	5	5	
	3	4	2	3	5	4	
86	1	3	3	3	3	9	
	2	4	2	2	3	7	
	3	7	1	2	3	5	
87	1	2	1	1	6	6	
	2	4	1	1	4	5	
	3	9	1	1	3	5	
88	1	3	4	5	6	7	
	2	6	3	5	3	4	
	3	8	3	5	2	4	
89	1	1	5	2	3	9	
	2	4	3	2	1	6	
	3	5	2	2	1	5	
90	1	3	5	3	7	8	
	2	4	4	3	5	7	
	3	6	4	3	4	7	
91	1	1	5	3	3	6	
	2	2	3	3	2	6	
	3	7	3	3	2	5	
92	1	2	3	3	6	6	
	2	4	2	3	4	5	
	3	10	2	3	3	2	
93	1	1	1	1	6	8	
	2	6	1	1	6	7	
	3	8	1	1	6	6	
94	1	7	4	3	7	5	
	2	8	3	1	7	2	
	3	10	2	1	7	2	
95	1	2	5	4	6	9	
	2	3	5	2	5	5	
	3	9	5	1	5	5	
96	1	2	3	2	5	9	
	2	3	2	1	4	8	
	3	10	2	1	4	5	
97	1	5	3	2	3	5	
	2	8	2	2	1	4	
	3	9	1	2	1	3	
98	1	3	3	3	5	7	
	2	4	2	2	2	7	
	3	10	1	1	2	7	
99	1	1	3	3	4	6	
	2	2	2	3	3	4	
	3	3	1	3	3	3	
100	1	8	4	2	9	7	
	2	9	3	1	9	6	
	3	10	2	1	8	5	
101	1	1	3	4	10	8	
	2	8	2	4	9	7	
	3	10	1	2	7	6	
102	1	0	0	0	0	0	
************************************************************************

 RESOURCE AVAILABILITIES 
	R 1	R 2	N 1	N 2
	14	12	547	576

************************************************************************
